NAME: I251-n21-k4
COMMENT : (Fake et al, No of trucks: 4, Optimal value: )
TYPE : CVRP
DIMENSION : 21
EDGE_WEIGHT_TYPE : EUC_2D
CAPACITY : 17
NODE_COORD_SECTION
1 559 788
2 466 916
3 973 721
4 161 290
5 405 941
6 77 758
7 833 270
8 141 380
9 699 931
10 681 601
11 423 146
12 465 132
13 947 407
14 877 805
15 316 160
16 493 674
17 103 945
18 325 529
19 44 883
20 451 862
21 412 446
DEMAND_SECTION
1 0
2 5
3 3
4 1
5 3
6 4
7 3
8 3
9 5
10 3
11 3
12 1
13 3
14 3
15 3
16 3
17 3
18 2
19 2
20 1
21 1
DEPOT_SECTION
 1
 -1
 EOF 